Version identifier: 12.10.0.0 | 2019-11-26 | 843d4de
CPXPARAM_WorkMem                                 16384
CPXPARAM_MIP_Limits_TreeMemory                   24576
Tried aggregator 2 times.
MIP Presolve eliminated 18 rows and 0 columns.
MIP Presolve added 36 rows and 0 columns.
Aggregator did 60 substitutions.
Reduced MIP has 100 rows, 100 columns, and 420 nonzeros.
Reduced MIP has 100 binaries, 0 generals, 0 SOSs, and 0 indicators.
Presolve time = 0,00 sec. (0,85 ticks)
Found incumbent of value 262,000000 after 0,00 sec. (0,98 ticks)
Probing time = 0,00 sec. (0,29 ticks)
Tried aggregator 1 time.
Detecting symmetries...
Reduced MIP has 100 rows, 100 columns, and 420 nonzeros.
Reduced MIP has 100 binaries, 0 generals, 0 SOSs, and 0 indicators.
Presolve time = 0,00 sec. (0,33 ticks)
Probing time = 0,00 sec. (0,29 ticks)
Clique table members: 360.
MIP emphasis: balance optimality and feasibility.
MIP search method: dynamic search.
Parallel mode: deterministic, using up to 16 threads.
Root relaxation solution time = 0,00 sec. (0,17 ticks)

        Nodes                                         Cuts/
   Node  Left     Objective  IInf  Best Integer    Best Bound    ItCnt     Gap

*     0+    0                          262,0000        0,0000           100,00%
*     0+    0                          235,0000        0,0000           100,00%
*     0+    0                          228,0000        0,0000           100,00%
      0     0      141,0000    54      228,0000      141,0000       30   38,16%
      0     0      141,0000    54      228,0000     Cuts: 125       61   38,16%
      0     0      141,0000    54      228,0000     Cuts: 125      104   38,16%
*     0+    0                          221,0000      141,0000            36,20%
Detecting symmetries...
      0     2      141,0000    48      221,0000      142,0000      104   35,75%
Elapsed time = 0,03 sec. (8,76 ticks, tree = 0,02 MB, solutions = 4)

Clique cuts applied:  26
Cover cuts applied:  119
Mixed integer rounding cuts applied:  1
Zero-half cuts applied:  2

Root node processing (before b&c):
  Real time             =    0,03 sec. (8,72 ticks)
Parallel b&c, 16 threads:
  Real time             =    0,05 sec. (14,07 ticks)
  Sync time (average)   =    0,02 sec.
  Wait time (average)   =    0,00 sec.
                          ------------
Total (root+branch&cut) =    0,08 sec. (22,79 ticks)
